2
1000 5
44
150 1 2
151 1 5
153 1 3
154 1 3
155 1 5
156 1 2
157 1 3
158 1 3
159 1 2
160 1 3
161 1 3
162 1 3
163 1 1
164 1 1
165 1 1
167 1 1
168 1 2
171 1 3
172 1 1
173 1 1
174 1 1
176 1 2
177 1 2
178 1 3
180 1 1
181 1 3
182 1 1
183 1 1
184 1 1
185 1 1
186 1 2
187 1 2
188 1 3
190 1 4
191 1 2
192 1 4
193 1 2
194 1 2
195 1 3
196 1 1
197 1 2
198 1 2
199 1 2
200 1 5
